p cnf 446 1586
c input variables 16
c output variables 1
c literals 4493
-17 4 0
17 -4 8 0
-17 -8 0
-18 3 0
18 -3 4 7 8 0
-18 4 -8 0
-18 -7 0
18 -3 -4 7 -8 0
-18 -4 8 0
19 -18 0
-19 17 18 0
19 -17 0
-20 2 0
20 -2 4 6 8 0
-20 4 -8 0
-20 -6 0
20 -2 -4 6 -8 0
-20 -4 8 0
21 3 7 -20 0
-21 20 0
-21 3 -7 0
-21 -3 7 0
21 -3 -7 -20 0
22 -21 0
-22 19 21 0
22 -19 0
-23 1 0
23 -1 4 5 8 0
-23 4 -8 0
-23 -5 0
23 -1 -4 5 -8 0
-23 -4 8 0
24 3 7 -23 0
-24 23 0
-24 3 -7 0
-24 -3 7 0
24 -3 -7 -23 0
25 2 6 -24 0
-25 24 0
-25 2 -6 0
-25 -2 6 0
25 -2 -6 -24 0
26 -25 0
-26 22 25 0
26 -22 0
27 -1 26 0
27 -5 -26 0
-27 1 26 0
-27 5 -26 0
28 -2 26 0
28 -6 -26 0
-28 2 26 0
-28 6 -26 0
29 -3 26 0
29 -7 -26 0
-29 3 26 0
-29 7 -26 0
30 -4 26 0
30 -8 -26 0
-30 4 26 0
-30 8 -26 0
31 -5 26 0
31 -1 -26 0
-31 5 26 0
-31 1 -26 0
32 -6 26 0
32 -2 -26 0
-32 6 26 0
-32 2 -26 0
33 -7 26 0
33 -3 -26 0
-33 7 26 0
-33 3 -26 0
34 -8 26 0
34 -4 -26 0
-34 8 26 0
-34 4 -26 0
35 12 -34 0
-35 34 0
-35 -12 0
-36 33 0
36 11 12 -33 34 0
-36 12 -34 0
36 11 -12 -33 -34 0
-36 -12 34 0
-36 -11 0
37 -36 0
-37 35 36 0
37 -35 0
-38 32 0
38 10 12 -32 34 0
-38 12 -34 0
38 10 -12 -32 -34 0
-38 -12 34 0
-38 -10 0
39 11 33 -38 0
-39 38 0
-39 11 -33 0
-39 -11 33 0
39 -11 -33 -38 0
40 -39 0
-40 37 39 0
40 -37 0
-41 31 0
41 9 12 -31 34 0
-41 12 -34 0
41 9 -12 -31 -34 0
-41 -12 34 0
-41 -9 0
42 11 33 -41 0
-42 41 0
-42 11 -33 0
-42 -11 33 0
42 -11 -33 -41 0
43 10 32 -42 0
-43 42 0
-43 10 -32 0
-43 -10 32 0
43 -10 -32 -42 0
44 -43 0
-44 40 43 0
44 -40 0
45 -31 44 0
45 -9 -44 0
-45 31 44 0
-45 9 -44 0
46 -32 44 0
46 -10 -44 0
-46 32 44 0
-46 10 -44 0
47 -33 44 0
47 -11 -44 0
-47 33 44 0
-47 11 -44 0
48 -34 44 0
48 -12 -44 0
-48 34 44 0
-48 12 -44 0
49 -9 44 0
49 -31 -44 0
-49 9 44 0
-49 31 -44 0
50 -10 44 0
50 -32 -44 0
-50 10 44 0
-50 32 -44 0
51 -11 44 0
51 -33 -44 0
-51 11 44 0
-51 33 -44 0
52 -12 44 0
52 -34 -44 0
-52 12 44 0
-52 34 -44 0
53 16 -52 0
-53 52 0
-53 -16 0
-54 51 0
54 15 16 -51 52 0
-54 16 -52 0
54 15 -16 -51 -52 0
-54 -16 52 0
-54 -15 0
55 -54 0
-55 53 54 0
55 -53 0
-56 50 0
56 14 16 -50 52 0
-56 16 -52 0
56 14 -16 -50 -52 0
-56 -16 52 0
-56 -14 0
57 15 51 -56 0
-57 56 0
-57 15 -51 0
-57 -15 51 0
57 -15 -51 -56 0
58 -57 0
-58 55 57 0
58 -55 0
-59 49 0
59 13 16 -49 52 0
-59 16 -52 0
59 13 -16 -49 -52 0
-59 -16 52 0
-59 -13 0
60 15 51 -59 0
-60 59 0
-60 15 -51 0
-60 -15 51 0
60 -15 -51 -59 0
61 14 50 -60 0
-61 60 0
-61 14 -50 0
-61 -14 50 0
61 -14 -50 -60 0
62 -61 0
-62 58 61 0
62 -58 0
63 -49 62 0
63 -13 -62 0
-63 49 62 0
-63 13 -62 0
64 -50 62 0
64 -14 -62 0
-64 50 62 0
-64 14 -62 0
65 -51 62 0
65 -15 -62 0
-65 51 62 0
-65 15 -62 0
66 -52 62 0
66 -16 -62 0
-66 52 62 0
-66 16 -62 0
67 -13 62 0
67 -49 -62 0
-67 13 62 0
-67 49 -62 0
68 -14 62 0
68 -50 -62 0
-68 14 62 0
-68 50 -62 0
69 -15 62 0
69 -51 -62 0
-69 15 62 0
-69 51 -62 0
70 -16 62 0
70 -52 -62 0
-70 16 62 0
-70 52 -62 0
-71 30 0
71 -30 48 0
-71 -48 0
-72 29 0
72 -29 30 47 48 0
-72 30 -48 0
-72 -47 0
72 -29 -30 47 -48 0
-72 -30 48 0
73 -72 0
-73 71 72 0
73 -71 0
-74 28 0
74 -28 30 46 48 0
-74 30 -48 0
-74 -46 0
74 -28 -30 46 -48 0
-74 -30 48 0
75 29 47 -74 0
-75 74 0
-75 29 -47 0
-75 -29 47 0
75 -29 -47 -74 0
76 -75 0
-76 73 75 0
76 -73 0
-77 27 0
77 -27 30 45 48 0
-77 30 -48 0
-77 -45 0
77 -27 -30 45 -48 0
-77 -30 48 0
78 29 47 -77 0
-78 77 0
-78 29 -47 0
-78 -29 47 0
78 -29 -47 -77 0
79 28 46 -78 0
-79 78 0
-79 28 -46 0
-79 -28 46 0
79 -28 -46 -78 0
80 -79 0
-80 76 79 0
80 -76 0
81 -27 80 0
81 -45 -80 0
-81 27 80 0
-81 45 -80 0
82 -28 80 0
82 -46 -80 0
-82 28 80 0
-82 46 -80 0
83 -29 80 0
83 -47 -80 0
-83 29 80 0
-83 47 -80 0
84 -30 80 0
84 -48 -80 0
-84 30 80 0
-84 48 -80 0
85 -45 80 0
85 -27 -80 0
-85 45 80 0
-85 27 -80 0
86 -46 80 0
86 -28 -80 0
-86 46 80 0
-86 28 -80 0
87 -47 80 0
87 -29 -80 0
-87 47 80 0
-87 29 -80 0
88 -48 80 0
88 -30 -80 0
-88 48 80 0
-88 30 -80 0
89 66 -88 0
-89 88 0
-89 -66 0
-90 87 0
90 65 66 -87 88 0
-90 66 -88 0
90 65 -66 -87 -88 0
-90 -66 88 0
-90 -65 0
91 -90 0
-91 89 90 0
91 -89 0
-92 86 0
92 64 66 -86 88 0
-92 66 -88 0
92 64 -66 -86 -88 0
-92 -66 88 0
-92 -64 0
93 65 87 -92 0
-93 92 0
-93 65 -87 0
-93 -65 87 0
93 -65 -87 -92 0
94 -93 0
-94 91 93 0
94 -91 0
-95 85 0
95 63 66 -85 88 0
-95 66 -88 0
95 63 -66 -85 -88 0
-95 -66 88 0
-95 -63 0
96 65 87 -95 0
-96 95 0
-96 65 -87 0
-96 -65 87 0
96 -65 -87 -95 0
97 64 86 -96 0
-97 96 0
-97 64 -86 0
-97 -64 86 0
97 -64 -86 -96 0
98 -97 0
-98 94 97 0
98 -94 0
99 -85 98 0
99 -63 -98 0
-99 85 98 0
-99 63 -98 0
100 -86 98 0
100 -64 -98 0
-100 86 98 0
-100 64 -98 0
101 -87 98 0
101 -65 -98 0
-101 87 98 0
-101 65 -98 0
102 -88 98 0
102 -66 -98 0
-102 88 98 0
-102 66 -98 0
103 -63 98 0
103 -85 -98 0
-103 63 98 0
-103 85 -98 0
104 -64 98 0
104 -86 -98 0
-104 64 98 0
-104 86 -98 0
105 -65 98 0
105 -87 -98 0
-105 65 98 0
-105 87 -98 0
106 -66 98 0
106 -88 -98 0
-106 66 98 0
-106 88 -98 0
-107 84 0
107 -84 102 0
-107 -102 0
-108 83 0
108 -83 84 101 102 0
-108 84 -102 0
-108 -101 0
108 -83 -84 101 -102 0
-108 -84 102 0
109 -108 0
-109 107 108 0
109 -107 0
-110 82 0
110 -82 84 100 102 0
-110 84 -102 0
-110 -100 0
110 -82 -84 100 -102 0
-110 -84 102 0
111 83 101 -110 0
-111 110 0
-111 83 -101 0
-111 -83 101 0
111 -83 -101 -110 0
112 -111 0
-112 109 111 0
112 -109 0
-113 81 0
113 -81 84 99 102 0
-113 84 -102 0
-113 -99 0
113 -81 -84 99 -102 0
-113 -84 102 0
114 83 101 -113 0
-114 113 0
-114 83 -101 0
-114 -83 101 0
114 -83 -101 -113 0
115 82 100 -114 0
-115 114 0
-115 82 -100 0
-115 -82 100 0
115 -82 -100 -114 0
116 -115 0
-116 112 115 0
116 -112 0
117 -81 116 0
117 -99 -116 0
-117 81 116 0
-117 99 -116 0
118 -82 116 0
118 -100 -116 0
-118 82 116 0
-118 100 -116 0
119 -83 116 0
119 -101 -116 0
-119 83 116 0
-119 101 -116 0
120 -84 116 0
120 -102 -116 0
-120 84 116 0
-120 102 -116 0
121 -99 116 0
121 -81 -116 0
-121 99 116 0
-121 81 -116 0
122 -100 116 0
122 -82 -116 0
-122 100 116 0
-122 82 -116 0
123 -101 116 0
123 -83 -116 0
-123 101 116 0
-123 83 -116 0
124 -102 116 0
124 -84 -116 0
-124 102 116 0
-124 84 -116 0
125 4 -8 0
-125 8 0
-125 -4 0
-126 7 0
126 3 4 -7 8 0
-126 4 -8 0
126 3 -4 -7 -8 0
-126 -4 8 0
-126 -3 0
127 -126 0
-127 125 126 0
127 -125 0
-128 6 0
128 2 4 -6 8 0
-128 4 -8 0
128 2 -4 -6 -8 0
-128 -4 8 0
-128 -2 0
129 3 7 -128 0
-129 128 0
-129 3 -7 0
-129 -3 7 0
129 -3 -7 -128 0
130 -129 0
-130 127 129 0
130 -127 0
-131 5 0
131 1 4 -5 8 0
-131 4 -8 0
131 1 -4 -5 -8 0
-131 -4 8 0
-131 -1 0
132 3 7 -131 0
-132 131 0
-132 3 -7 0
-132 -3 7 0
132 -3 -7 -131 0
133 2 6 -132 0
-133 132 0
-133 2 -6 0
-133 -2 6 0
133 -2 -6 -132 0
134 -133 0
-134 130 133 0
134 -130 0
-135 134 0
135 -134 0
-136 0
-137 0
138 -137 0
-138 136 137 0
138 -136 0
-139 0
140 -139 0
-140 139 0
141 -140 0
-141 138 140 0
141 -138 0
-142 0
143 -142 0
-143 142 0
144 -143 0
-144 143 0
145 -144 0
-145 141 144 0
145 -141 0
-146 135 0
146 -135 -145 0
-146 145 0
147 -146 0
-147 135 146 0
147 -135 0
148 147 0
-148 -147 0
149 4 -12 0
-149 12 0
-149 -4 0
-150 11 0
150 3 4 -11 12 0
-150 4 -12 0
150 3 -4 -11 -12 0
-150 -4 12 0
-150 -3 0
151 -150 0
-151 149 150 0
151 -149 0
-152 10 0
152 2 4 -10 12 0
-152 4 -12 0
152 2 -4 -10 -12 0
-152 -4 12 0
-152 -2 0
153 3 11 -152 0
-153 152 0
-153 3 -11 0
-153 -3 11 0
153 -3 -11 -152 0
154 -153 0
-154 151 153 0
154 -151 0
-155 9 0
155 1 4 -9 12 0
-155 4 -12 0
155 1 -4 -9 -12 0
-155 -4 12 0
-155 -1 0
156 3 11 -155 0
-156 155 0
-156 3 -11 0
-156 -3 11 0
156 -3 -11 -155 0
157 2 10 -156 0
-157 156 0
-157 2 -10 0
-157 -2 10 0
157 -2 -10 -156 0
158 -157 0
-158 154 157 0
158 -154 0
-159 148 0
159 -148 -158 0
-159 158 0
-160 147 0
160 -147 159 0
-160 -159 0
-161 159 0
161 -159 0
-162 160 0
162 -160 161 0
-162 -161 0
163 8 -12 0
-163 12 0
-163 -8 0
-164 11 0
164 7 8 -11 12 0
-164 8 -12 0
164 7 -8 -11 -12 0
-164 -8 12 0
-164 -7 0
165 -164 0
-165 163 164 0
165 -163 0
-166 10 0
166 6 8 -10 12 0
-166 8 -12 0
166 6 -8 -10 -12 0
-166 -8 12 0
-166 -6 0
167 7 11 -166 0
-167 166 0
-167 7 -11 0
-167 -7 11 0
167 -7 -11 -166 0
168 -167 0
-168 165 167 0
168 -165 0
-169 9 0
169 5 8 -9 12 0
-169 8 -12 0
169 5 -8 -9 -12 0
-169 -8 12 0
-169 -5 0
170 7 11 -169 0
-170 169 0
-170 7 -11 0
-170 -7 11 0
170 -7 -11 -169 0
171 6 10 -170 0
-171 170 0
-171 6 -10 0
-171 -6 10 0
171 -6 -10 -170 0
172 -171 0
-172 168 171 0
172 -168 0
-173 162 0
173 -162 -172 0
-173 172 0
-174 160 0
174 -160 173 0
-174 -173 0
175 -173 0
-175 161 173 0
175 -161 0
176 174 0
-176 -174 0
-177 175 0
177 -175 -176 0
-177 176 0
-178 0
-179 0
180 -179 0
-180 178 179 0
180 -178 0
-181 0
182 -181 0
-182 181 0
183 -182 0
-183 180 182 0
183 -180 0
-184 0
185 -184 0
-185 184 0
186 -185 0
-186 185 0
187 -186 0
-187 183 186 0
187 -183 0
-188 177 0
188 -177 -187 0
-188 187 0
-189 174 0
189 -174 188 0
-189 -188 0
190 -188 0
-190 175 188 0
190 -175 0
-191 189 0
191 -189 -190 0
-191 190 0
-192 12 0
192 -12 16 0
-192 -16 0
-193 11 0
193 -11 12 15 16 0
-193 12 -16 0
-193 -15 0
193 -11 -12 15 -16 0
-193 -12 16 0
194 -193 0
-194 192 193 0
194 -192 0
-195 10 0
195 -10 12 14 16 0
-195 12 -16 0
-195 -14 0
195 -10 -12 14 -16 0
-195 -12 16 0
196 11 15 -195 0
-196 195 0
-196 11 -15 0
-196 -11 15 0
196 -11 -15 -195 0
197 -196 0
-197 194 196 0
197 -194 0
-198 9 0
198 -9 12 13 16 0
-198 12 -16 0
-198 -13 0
198 -9 -12 13 -16 0
-198 -12 16 0
199 11 15 -198 0
-199 198 0
-199 11 -15 0
-199 -11 15 0
199 -11 -15 -198 0
200 10 14 -199 0
-200 199 0
-200 10 -14 0
-200 -10 14 0
200 -10 -14 -199 0
201 -200 0
-201 197 200 0
201 -197 0
-202 191 0
202 -191 -201 0
-202 201 0
-203 189 0
203 -189 202 0
-203 -202 0
204 -202 0
-204 190 202 0
204 -190 0
205 203 0
-205 -203 0
206 204 -205 0
-206 205 0
-206 -204 0
207 4 -16 0
-207 16 0
-207 -4 0
-208 15 0
208 3 4 -15 16 0
-208 4 -16 0
208 3 -4 -15 -16 0
-208 -4 16 0
-208 -3 0
209 -208 0
-209 207 208 0
209 -207 0
-210 14 0
210 2 4 -14 16 0
-210 4 -16 0
210 2 -4 -14 -16 0
-210 -4 16 0
-210 -2 0
211 3 15 -210 0
-211 210 0
-211 3 -15 0
-211 -3 15 0
211 -3 -15 -210 0
212 -211 0
-212 209 211 0
212 -209 0
-213 13 0
213 1 4 -13 16 0
-213 4 -16 0
213 1 -4 -13 -16 0
-213 -4 16 0
-213 -1 0
214 3 15 -213 0
-214 213 0
-214 3 -15 0
-214 -3 15 0
214 -3 -15 -213 0
215 2 14 -214 0
-215 214 0
-215 2 -14 0
-215 -2 14 0
215 -2 -14 -214 0
216 -215 0
-216 212 215 0
216 -212 0
-217 206 0
217 -206 -216 0
-217 216 0
218 -217 0
-218 203 217 0
218 -203 0
219 -217 0
-219 204 217 0
219 -204 0
-220 218 0
220 -218 219 0
-220 -219 0
221 8 -16 0
-221 16 0
-221 -8 0
-222 15 0
222 7 8 -15 16 0
-222 8 -16 0
222 7 -8 -15 -16 0
-222 -8 16 0
-222 -7 0
223 -222 0
-223 221 222 0
223 -221 0
-224 14 0
224 6 8 -14 16 0
-224 8 -16 0
224 6 -8 -14 -16 0
-224 -8 16 0
-224 -6 0
225 7 15 -224 0
-225 224 0
-225 7 -15 0
-225 -7 15 0
225 -7 -15 -224 0
226 -225 0
-226 223 225 0
226 -223 0
-227 13 0
227 5 8 -13 16 0
-227 8 -16 0
227 5 -8 -13 -16 0
-227 -8 16 0
-227 -5 0
228 7 15 -227 0
-228 227 0
-228 7 -15 0
-228 -7 15 0
228 -7 -15 -227 0
229 6 14 -228 0
-229 228 0
-229 6 -14 0
-229 -6 14 0
229 -6 -14 -228 0
230 -229 0
-230 226 229 0
230 -226 0
-231 220 0
231 -220 -230 0
-231 230 0
232 -231 0
-232 218 231 0
232 -218 0
233 -231 0
-233 219 231 0
233 -219 0
234 232 0
-234 -232 0
-235 233 0
235 -233 -234 0
-235 234 0
236 12 -16 0
-236 16 0
-236 -12 0
-237 15 0
237 11 12 -15 16 0
-237 12 -16 0
237 11 -12 -15 -16 0
-237 -12 16 0
-237 -11 0
238 -237 0
-238 236 237 0
238 -236 0
-239 14 0
239 10 12 -14 16 0
-239 12 -16 0
239 10 -12 -14 -16 0
-239 -12 16 0
-239 -10 0
240 11 15 -239 0
-240 239 0
-240 11 -15 0
-240 -11 15 0
240 -11 -15 -239 0
241 -240 0
-241 238 240 0
241 -238 0
-242 13 0
242 9 12 -13 16 0
-242 12 -16 0
242 9 -12 -13 -16 0
-242 -12 16 0
-242 -9 0
243 11 15 -242 0
-243 242 0
-243 11 -15 0
-243 -11 15 0
243 -11 -15 -242 0
244 10 14 -243 0
-244 243 0
-244 10 -14 0
-244 -10 14 0
244 -10 -14 -243 0
245 -244 0
-245 241 244 0
245 -241 0
-246 235 0
246 -235 -245 0
-246 245 0
247 -246 0
-247 232 246 0
247 -232 0
248 -246 0
-248 233 246 0
248 -233 0
-249 247 0
249 -247 -248 0
-249 248 0
-250 0
-251 0
252 -251 0
-252 250 251 0
252 -250 0
-253 0
254 -253 0
-254 253 0
255 -254 0
-255 252 254 0
255 -252 0
-256 0
257 -256 0
-257 256 0
258 -257 0
-258 257 0
259 -258 0
-259 255 258 0
259 -255 0
-260 249 0
260 -249 -259 0
-260 259 0
261 -260 0
-261 247 260 0
261 -247 0
262 -260 0
-262 248 260 0
262 -248 0
-263 261 0
263 -261 262 0
-263 -262 0
264 -1 263 0
264 -5 -263 0
-264 1 263 0
-264 5 -263 0
265 -2 263 0
265 -6 -263 0
-265 2 263 0
-265 6 -263 0
266 -3 263 0
266 -7 -263 0
-266 3 263 0
-266 7 -263 0
267 -4 263 0
267 -8 -263 0
-267 4 263 0
-267 8 -263 0
268 -5 263 0
268 -1 -263 0
-268 5 263 0
-268 1 -263 0
269 -6 263 0
269 -2 -263 0
-269 6 263 0
-269 2 -263 0
270 -7 263 0
270 -3 -263 0
-270 7 263 0
-270 3 -263 0
271 -8 263 0
271 -4 -263 0
-271 8 263 0
-271 4 -263 0
272 261 0
-272 -261 0
-273 262 0
273 -262 -272 0
-273 272 0
274 -264 273 0
274 -9 -273 0
-274 264 273 0
-274 9 -273 0
275 -265 273 0
275 -10 -273 0
-275 265 273 0
-275 10 -273 0
276 -266 273 0
276 -11 -273 0
-276 266 273 0
-276 11 -273 0
277 -267 273 0
277 -12 -273 0
-277 267 273 0
-277 12 -273 0
278 -9 273 0
278 -264 -273 0
-278 9 273 0
-278 264 -273 0
279 -10 273 0
279 -265 -273 0
-279 10 273 0
-279 265 -273 0
280 -11 273 0
280 -266 -273 0
-280 11 273 0
-280 266 -273 0
281 -12 273 0
281 -267 -273 0
-281 12 273 0
-281 267 -273 0
282 -268 0
-282 268 0
283 -269 0
-283 269 0
284 -270 0
-284 270 0
285 -271 0
-285 271 0
-286 261 0
286 -261 -262 0
-286 262 0
287 286 0
-287 -286 0
288 -274 287 0
288 -13 -287 0
-288 274 287 0
-288 13 -287 0
289 -275 287 0
289 -14 -287 0
-289 275 287 0
-289 14 -287 0
290 -276 287 0
290 -15 -287 0
-290 276 287 0
-290 15 -287 0
291 -277 287 0
291 -16 -287 0
-291 277 287 0
-291 16 -287 0
292 -13 287 0
292 -274 -287 0
-292 13 287 0
-292 274 -287 0
293 -14 287 0
293 -275 -287 0
-293 14 287 0
-293 275 -287 0
294 -15 287 0
294 -276 -287 0
-294 15 287 0
-294 276 -287 0
295 -16 287 0
295 -277 -287 0
-295 16 287 0
-295 277 -287 0
296 -282 287 0
296 -278 -287 0
-296 282 287 0
-296 278 -287 0
297 -283 287 0
297 -279 -287 0
-297 283 287 0
-297 279 -287 0
298 -284 287 0
298 -280 -287 0
-298 284 287 0
-298 280 -287 0
299 -285 287 0
299 -281 -287 0
-299 285 287 0
-299 281 -287 0
300 -278 287 0
300 -282 -287 0
-300 278 287 0
-300 282 -287 0
301 -279 287 0
301 -283 -287 0
-301 279 287 0
-301 283 -287 0
302 -280 287 0
302 -284 -287 0
-302 280 287 0
-302 284 -287 0
303 -281 287 0
303 -285 -287 0
-303 281 287 0
-303 285 -287 0
304 291 -299 0
-304 299 0
-304 -291 0
-305 298 0
305 290 291 -298 299 0
-305 291 -299 0
305 290 -291 -298 -299 0
-305 -291 299 0
-305 -290 0
306 -305 0
-306 304 305 0
306 -304 0
-307 297 0
307 289 291 -297 299 0
-307 291 -299 0
307 289 -291 -297 -299 0
-307 -291 299 0
-307 -289 0
308 290 298 -307 0
-308 307 0
-308 290 -298 0
-308 -290 298 0
308 -290 -298 -307 0
309 -308 0
-309 306 308 0
309 -306 0
-310 296 0
310 288 291 -296 299 0
-310 291 -299 0
310 288 -291 -296 -299 0
-310 -291 299 0
-310 -288 0
311 290 298 -310 0
-311 310 0
-311 290 -298 0
-311 -290 298 0
311 -290 -298 -310 0
312 289 297 -311 0
-312 311 0
-312 289 -297 0
-312 -289 297 0
312 -289 -297 -311 0
313 -312 0
-313 309 312 0
313 -309 0
-314 313 0
314 -313 0
-315 0
-316 0
317 -316 0
-317 315 316 0
317 -315 0
-318 0
319 -318 0
-319 318 0
320 -319 0
-320 317 319 0
320 -317 0
-321 0
322 -321 0
-322 321 0
323 -322 0
-323 322 0
324 -323 0
-324 320 323 0
324 -320 0
-325 314 0
325 -314 -324 0
-325 324 0
326 -325 0
-326 314 325 0
326 -314 0
327 326 0
-327 -326 0
328 291 -303 0
-328 303 0
-328 -291 0
-329 302 0
329 290 291 -302 303 0
-329 291 -303 0
329 290 -291 -302 -303 0
-329 -291 303 0
-329 -290 0
330 -329 0
-330 328 329 0
330 -328 0
-331 301 0
331 289 291 -301 303 0
-331 291 -303 0
331 289 -291 -301 -303 0
-331 -291 303 0
-331 -289 0
332 290 302 -331 0
-332 331 0
-332 290 -302 0
-332 -290 302 0
332 -290 -302 -331 0
333 -332 0
-333 330 332 0
333 -330 0
-334 300 0
334 288 291 -300 303 0
-334 291 -303 0
334 288 -291 -300 -303 0
-334 -291 303 0
-334 -288 0
335 290 302 -334 0
-335 334 0
-335 290 -302 0
-335 -290 302 0
335 -290 -302 -334 0
336 289 301 -335 0
-336 335 0
-336 289 -301 0
-336 -289 301 0
336 -289 -301 -335 0
337 -336 0
-337 333 336 0
337 -333 0
-338 327 0
338 -327 -337 0
-338 337 0
-339 326 0
339 -326 338 0
-339 -338 0
-340 338 0
340 -338 0
-341 339 0
341 -339 340 0
-341 -340 0
342 299 -303 0
-342 303 0
-342 -299 0
-343 302 0
343 298 299 -302 303 0
-343 299 -303 0
343 298 -299 -302 -303 0
-343 -299 303 0
-343 -298 0
344 -343 0
-344 342 343 0
344 -342 0
-345 301 0
345 297 299 -301 303 0
-345 299 -303 0
345 297 -299 -301 -303 0
-345 -299 303 0
-345 -297 0
346 298 302 -345 0
-346 345 0
-346 298 -302 0
-346 -298 302 0
346 -298 -302 -345 0
347 -346 0
-347 344 346 0
347 -344 0
-348 300 0
348 296 299 -300 303 0
-348 299 -303 0
348 296 -299 -300 -303 0
-348 -299 303 0
-348 -296 0
349 298 302 -348 0
-349 348 0
-349 298 -302 0
-349 -298 302 0
349 -298 -302 -348 0
350 297 301 -349 0
-350 349 0
-350 297 -301 0
-350 -297 301 0
350 -297 -301 -349 0
351 -350 0
-351 347 350 0
351 -347 0
-352 341 0
352 -341 -351 0
-352 351 0
-353 339 0
353 -339 352 0
-353 -352 0
354 -352 0
-354 340 352 0
354 -340 0
355 353 0
-355 -353 0
-356 354 0
356 -354 -355 0
-356 355 0
-357 0
-358 0
359 -358 0
-359 357 358 0
359 -357 0
-360 0
361 -360 0
-361 360 0
362 -361 0
-362 359 361 0
362 -359 0
-363 0
364 -363 0
-364 363 0
365 -364 0
-365 364 0
366 -365 0
-366 362 365 0
366 -362 0
-367 356 0
367 -356 -366 0
-367 366 0
-368 353 0
368 -353 367 0
-368 -367 0
369 -367 0
-369 354 367 0
369 -354 0
-370 368 0
370 -368 369 0
-370 -369 0
371 -288 370 0
371 -296 -370 0
-371 288 370 0
-371 296 -370 0
372 -289 370 0
372 -297 -370 0
-372 289 370 0
-372 297 -370 0
373 -290 370 0
373 -298 -370 0
-373 290 370 0
-373 298 -370 0
374 -291 370 0
374 -299 -370 0
-374 291 370 0
-374 299 -370 0
375 -296 370 0
375 -288 -370 0
-375 296 370 0
-375 288 -370 0
376 -297 370 0
376 -289 -370 0
-376 297 370 0
-376 289 -370 0
377 -298 370 0
377 -290 -370 0
-377 298 370 0
-377 290 -370 0
378 -299 370 0
378 -291 -370 0
-378 299 370 0
-378 291 -370 0
379 368 0
-379 -368 0
-380 369 0
380 -369 -379 0
-380 379 0
381 380 0
-381 -380 0
382 -371 381 0
382 -300 -381 0
-382 371 381 0
-382 300 -381 0
383 -372 381 0
383 -301 -381 0
-383 372 381 0
-383 301 -381 0
384 -373 381 0
384 -302 -381 0
-384 373 381 0
-384 302 -381 0
385 -374 381 0
385 -303 -381 0
-385 374 381 0
-385 303 -381 0
386 -300 381 0
386 -371 -381 0
-386 300 381 0
-386 371 -381 0
387 -301 381 0
387 -372 -381 0
-387 301 381 0
-387 372 -381 0
388 -302 381 0
388 -373 -381 0
-388 302 381 0
-388 373 -381 0
389 -303 381 0
389 -374 -381 0
-389 303 381 0
-389 374 -381 0
390 -375 0
-390 375 0
391 -376 0
-391 376 0
392 -377 0
-392 377 0
393 -378 0
-393 378 0
394 385 -393 0
-394 393 0
-394 -385 0
-395 392 0
395 384 385 -392 393 0
-395 385 -393 0
395 384 -385 -392 -393 0
-395 -385 393 0
-395 -384 0
396 -395 0
-396 394 395 0
396 -394 0
-397 391 0
397 383 385 -391 393 0
-397 385 -393 0
397 383 -385 -391 -393 0
-397 -385 393 0
-397 -383 0
398 384 392 -397 0
-398 397 0
-398 384 -392 0
-398 -384 392 0
398 -384 -392 -397 0
399 -398 0
-399 396 398 0
399 -396 0
-400 390 0
400 382 385 -390 393 0
-400 385 -393 0
400 382 -385 -390 -393 0
-400 -385 393 0
-400 -382 0
401 384 392 -400 0
-401 400 0
-401 384 -392 0
-401 -384 392 0
401 -384 -392 -400 0
402 383 391 -401 0
-402 401 0
-402 383 -391 0
-402 -383 391 0
402 -383 -391 -401 0
403 -402 0
-403 399 402 0
403 -399 0
-404 403 0
404 -403 0
-405 0
-406 0
407 -406 0
-407 405 406 0
407 -405 0
-408 0
409 -408 0
-409 408 0
410 -409 0
-410 407 409 0
410 -407 0
-411 0
412 -411 0
-412 411 0
413 -412 0
-413 412 0
414 -413 0
-414 410 413 0
414 -410 0
-415 404 0
415 -404 -414 0
-415 414 0
416 -415 0
-416 404 415 0
416 -404 0
417 416 0
-417 -416 0
418 -382 417 0
418 -390 -417 0
-418 382 417 0
-418 390 -417 0
419 -383 417 0
419 -391 -417 0
-419 383 417 0
-419 391 -417 0
420 -384 417 0
420 -392 -417 0
-420 384 417 0
-420 392 -417 0
421 -385 417 0
421 -393 -417 0
-421 385 417 0
-421 393 -417 0
422 -390 417 0
422 -382 -417 0
-422 390 417 0
-422 382 -417 0
423 -391 417 0
423 -383 -417 0
-423 391 417 0
-423 383 -417 0
424 -392 417 0
424 -384 -417 0
-424 392 417 0
-424 384 -417 0
425 -393 417 0
425 -385 -417 0
-425 393 417 0
-425 385 -417 0
426 117 -418 0
426 -117 418 0
-426 117 418 0
-426 -117 -418 0
427 118 -419 0
427 -118 419 0
-427 118 419 0
-427 -118 -419 0
428 119 -420 0
428 -119 420 0
-428 119 420 0
-428 -119 -420 0
429 120 -421 0
429 -120 421 0
-429 120 421 0
-429 -120 -421 0
430 121 -422 0
430 -121 422 0
-430 121 422 0
-430 -121 -422 0
431 122 -423 0
431 -122 423 0
-431 122 423 0
-431 -122 -423 0
432 123 -424 0
432 -123 424 0
-432 123 424 0
-432 -123 -424 0
433 124 -425 0
433 -124 425 0
-433 124 425 0
-433 -124 -425 0
434 103 -386 0
434 -103 386 0
-434 103 386 0
-434 -103 -386 0
435 104 -387 0
435 -104 387 0
-435 104 387 0
-435 -104 -387 0
436 105 -388 0
436 -105 388 0
-436 105 388 0
-436 -105 -388 0
437 106 -389 0
437 -106 389 0
-437 106 389 0
-437 -106 -389 0
438 67 -292 0
438 -67 292 0
-438 67 292 0
-438 -67 -292 0
439 68 -293 0
439 -68 293 0
-439 68 293 0
-439 -68 -293 0
440 69 -294 0
440 -69 294 0
-440 69 294 0
-440 -69 -294 0
441 70 -295 0
441 -70 295 0
-441 70 295 0
-441 -70 -295 0
442 -429 0
-442 426 427 428 429 0
442 -428 0
442 -427 0
442 -426 0
443 -433 0
-443 430 431 432 433 0
443 -432 0
443 -431 0
443 -430 0
444 -437 0
-444 434 435 436 437 0
444 -436 0
444 -435 0
444 -434 0
445 -441 0
-445 438 439 440 441 0
445 -440 0
445 -439 0
445 -438 0
446 -445 0
-446 442 443 444 445 0
446 -444 0
446 -443 0
446 -442 0
446 0
